language ESSENCE' 1.0
letting values be [[1, 0, 9, 5, 0, 8, 2, 0, 0], [2, 5, 4, 1, 3, 6, 0, 8, 7], [8, 7, 0, 0, 4, 2, 1, 0, 5], [6, 4, 3, 0, 0, 0, 7, 9, 8], [5, 2, 1, 0, 0, 7, 0, 6, 3], [7, 9, 0, 4, 6, 0, 0, 1, 0], [0, 0, 5, 3, 0, 0, 8, 0, 9], [3, 0, 2, 7, 0, 0, 0, 5, 4], [0, 8, 0, 0, 5, 0, 3, 0, 1]]